============================[ Problem Statistics ]=============================|                                                                             ||  Number of variables:          4242                                         ||  Number of clauses:            9643                                         ||  Parse time:                   0.05 s                                       ||                                                                             |============================[ Search Statistics ]==============================| Conflicts |          ORIGINAL         |          LEARNT          | Progress ||           |    Vars  Clauses Literals |    Limit  Clauses Lit/Cl |          |==============================================================================================================================================================restarts              : 1conflicts             : 32             (516 /sec)decisions             : 117            (0.00 % random) (1887 /sec)propagations          : 8075           (130242 /sec)conflict literals     : 1050           (95.61 % deleted)CPU time              : 0.062 sSATISFIABLE